NAME: P-n50-k7
COMMENT: GVRP 
DIMENSION:  50 
VEHICLES:  4 
GVRP_SETS:  25 
CAPACITY:  150 
NODE_COORD_SECTION 
1 40.000000 40.000000
2 22.000000 22.000000
3 36.000000 26.000000
4 21.000000 45.000000
5 45.000000 35.000000
6 55.000000 20.000000
7 33.000000 34.000000
8 50.000000 50.000000
9 55.000000 45.000000
10 26.000000 59.000000
11 40.000000 66.000000
12 55.000000 65.000000
13 35.000000 51.000000
14 62.000000 35.000000
15 62.000000 57.000000
16 62.000000 24.000000
17 21.000000 36.000000
18 33.000000 44.000000
19 9.000000 56.000000
20 62.000000 48.000000
21 66.000000 14.000000
22 44.000000 13.000000
23 26.000000 13.000000
24 11.000000 28.000000
25 7.000000 43.000000
26 17.000000 64.000000
27 41.000000 46.000000
28 55.000000 34.000000
29 35.000000 16.000000
30 52.000000 26.000000
31 43.000000 26.000000
32 31.000000 76.000000
33 22.000000 53.000000
34 26.000000 29.000000
35 50.000000 40.000000
36 55.000000 50.000000
37 54.000000 10.000000
38 60.000000 15.000000
39 47.000000 66.000000
40 30.000000 60.000000
41 30.000000 50.000000
42 12.000000 17.000000
43 15.000000 14.000000
44 16.000000 19.000000
45 21.000000 48.000000
46 50.000000 30.000000
47 51.000000 42.000000
48 50.000000 15.000000
49 48.000000 21.000000
50 12.000000 38.000000
GVRP_SET_SECTION 
 1 21  38 -1
 2  19 -1
 3  12 -1
 4  43  42  44 -1
 5  5  35  46 -1
 6  32 -1
 7  17 -1
 8  22  29  48 -1
 9  13  18  27  41 -1
 10  20 -1
 11  3  31 -1
 12  6  16  30  49 -1
 13  11  39 -1
 14  14  28 -1
 15  24 -1
 16  25  50 -1
 17  33  4  45 -1
 18  8  9  36  47 -1
 19  2  34 -1
 20  26 -1
 21  23 -1
 22  37 -1
 23  40  10 -1
 24  7 -1
 25  15 -1
 DEMAND_SECTION
 1 18 
 2 13 
 3 37 
 4 14 
 5 23 
 6 25 
 7 19 
 8 25 
 9 21 
 10 15 
 11 24 
 12 15 
 13 25 
 14 14 
 15 6 
 16 16 
 17 18 
 18 17 
 19 22 
 20 14 
 21 12 
 22 12 
 23 22 
 24 19 
 25 31 
INTRA_CLUSTER_DISTANCE
10000000000000 10000000000000 10000000000000 10000000000000 10000000000000 10000000000000 10000000000000 10000000000000 10000000000000 10000000000000 10000000000000 10000000000000 10000000000000 10000000000000 10000000000000 10000000000000 10000000000000 10000000000000 10000000000000 10000000000000 10000000000000 10000000000000 10000000000000 10000000000000 10000000000000 10000000000000 10000000000000 10000000000000 10000000000000 10000000000000 10000000000000 10000000000000 10000000000000 10000000000000 10000000000000 10000000000000 10000000000000 10000000000000 10000000000000 10000000000000 10000000000000 10000000000000 10000000000000 10000000000000 10000000000000 10000000000000 10000000000000 10000000000000 10000000000000 10000000000000 
10000000000000 10000000000000 10000000000000 10000000000000 10000000000000 10000000000000 10000000000000 10000000000000 10000000000000 10000000000000 10000000000000 10000000000000 10000000000000 10000000000000 10000000000000 10000000000000 10000000000000 10000000000000 10000000000000 10000000000000 10000000000000 10000000000000 10000000000000 10000000000000 10000000000000 10000000000000 10000000000000 10000000000000 10000000000000 10000000000000 10000000000000 10000000000000 10000000000000 8 10000000000000 10000000000000 10000000000000 10000000000000 10000000000000 10000000000000 10000000000000 10000000000000 10000000000000 10000000000000 10000000000000 10000000000000 10000000000000 10000000000000 10000000000000 10000000000000 
10000000000000 10000000000000 10000000000000 10000000000000 10000000000000 10000000000000 10000000000000 10000000000000 10000000000000 10000000000000 10000000000000 10000000000000 10000000000000 10000000000000 10000000000000 10000000000000 10000000000000 10000000000000 10000000000000 10000000000000 10000000000000 10000000000000 10000000000000 10000000000000 10000000000000 10000000000000 10000000000000 10000000000000 10000000000000 10000000000000 7 10000000000000 10000000000000 10000000000000 10000000000000 10000000000000 10000000000000 10000000000000 10000000000000 10000000000000 10000000000000 10000000000000 10000000000000 10000000000000 10000000000000 10000000000000 10000000000000 10000000000000 10000000000000 10000000000000 
10000000000000 10000000000000 10000000000000 10000000000000 10000000000000 10000000000000 10000000000000 10000000000000 10000000000000 10000000000000 10000000000000 10000000000000 10000000000000 10000000000000 10000000000000 10000000000000 10000000000000 10000000000000 10000000000000 10000000000000 10000000000000 10000000000000 10000000000000 10000000000000 10000000000000 10000000000000 10000000000000 10000000000000 10000000000000 10000000000000 10000000000000 10000000000000 8 10000000000000 10000000000000 10000000000000 10000000000000 10000000000000 10000000000000 10000000000000 10000000000000 10000000000000 10000000000000 10000000000000 13 10000000000000 10000000000000 10000000000000 10000000000000 10000000000000 
10000000000000 10000000000000 10000000000000 10000000000000 10000000000000 10000000000000 10000000000000 10000000000000 10000000000000 10000000000000 10000000000000 10000000000000 10000000000000 10000000000000 10000000000000 10000000000000 10000000000000 10000000000000 10000000000000 10000000000000 10000000000000 10000000000000 10000000000000 10000000000000 10000000000000 10000000000000 10000000000000 10000000000000 10000000000000 10000000000000 10000000000000 10000000000000 10000000000000 10000000000000 17 10000000000000 10000000000000 10000000000000 10000000000000 10000000000000 10000000000000 10000000000000 10000000000000 10000000000000 10000000000000 17 10000000000000 10000000000000 10000000000000 10000000000000 
10000000000000 10000000000000 10000000000000 10000000000000 10000000000000 10000000000000 10000000000000 10000000000000 10000000000000 10000000000000 10000000000000 10000000000000 10000000000000 10000000000000 10000000000000 23 10000000000000 10000000000000 10000000000000 10000000000000 10000000000000 10000000000000 10000000000000 10000000000000 10000000000000 10000000000000 10000000000000 10000000000000 10000000000000 28 10000000000000 10000000000000 10000000000000 10000000000000 10000000000000 10000000000000 10000000000000 10000000000000 10000000000000 10000000000000 10000000000000 10000000000000 10000000000000 10000000000000 10000000000000 10000000000000 10000000000000 10000000000000 24 10000000000000 
10000000000000 10000000000000 10000000000000 10000000000000 10000000000000 10000000000000 10000000000000 10000000000000 10000000000000 10000000000000 10000000000000 10000000000000 10000000000000 10000000000000 10000000000000 10000000000000 10000000000000 10000000000000 10000000000000 10000000000000 10000000000000 10000000000000 10000000000000 10000000000000 10000000000000 10000000000000 10000000000000 10000000000000 10000000000000 10000000000000 10000000000000 10000000000000 10000000000000 10000000000000 10000000000000 10000000000000 10000000000000 10000000000000 10000000000000 10000000000000 10000000000000 10000000000000 10000000000000 10000000000000 10000000000000 10000000000000 10000000000000 10000000000000 10000000000000 10000000000000 
10000000000000 10000000000000 10000000000000 10000000000000 10000000000000 10000000000000 10000000000000 10000000000000 19 10000000000000 10000000000000 10000000000000 10000000000000 10000000000000 10000000000000 10000000000000 10000000000000 10000000000000 10000000000000 10000000000000 10000000000000 10000000000000 10000000000000 10000000000000 10000000000000 10000000000000 10000000000000 10000000000000 10000000000000 10000000000000 10000000000000 10000000000000 10000000000000 10000000000000 10000000000000 18 10000000000000 10000000000000 10000000000000 10000000000000 10000000000000 10000000000000 10000000000000 10000000000000 10000000000000 10000000000000 15 10000000000000 10000000000000 10000000000000 
10000000000000 10000000000000 10000000000000 10000000000000 10000000000000 10000000000000 10000000000000 19 10000000000000 10000000000000 10000000000000 10000000000000 10000000000000 10000000000000 10000000000000 10000000000000 10000000000000 10000000000000 10000000000000 10000000000000 10000000000000 10000000000000 10000000000000 10000000000000 10000000000000 10000000000000 10000000000000 10000000000000 10000000000000 10000000000000 10000000000000 10000000000000 10000000000000 10000000000000 10000000000000 18 10000000000000 10000000000000 10000000000000 10000000000000 10000000000000 10000000000000 10000000000000 10000000000000 10000000000000 10000000000000 18 10000000000000 10000000000000 10000000000000 
10000000000000 10000000000000 10000000000000 10000000000000 10000000000000 10000000000000 10000000000000 10000000000000 10000000000000 10000000000000 10000000000000 10000000000000 10000000000000 10000000000000 10000000000000 10000000000000 10000000000000 10000000000000 10000000000000 10000000000000 10000000000000 10000000000000 10000000000000 10000000000000 10000000000000 10000000000000 10000000000000 10000000000000 10000000000000 10000000000000 10000000000000 10000000000000 10000000000000 10000000000000 10000000000000 10000000000000 10000000000000 10000000000000 10000000000000 4 10000000000000 10000000000000 10000000000000 10000000000000 10000000000000 10000000000000 10000000000000 10000000000000 10000000000000 10000000000000 
10000000000000 10000000000000 10000000000000 10000000000000 10000000000000 10000000000000 10000000000000 10000000000000 10000000000000 10000000000000 10000000000000 10000000000000 10000000000000 10000000000000 10000000000000 10000000000000 10000000000000 10000000000000 10000000000000 10000000000000 10000000000000 10000000000000 10000000000000 10000000000000 10000000000000 10000000000000 10000000000000 10000000000000 10000000000000 10000000000000 10000000000000 10000000000000 10000000000000 10000000000000 10000000000000 10000000000000 10000000000000 10000000000000 7 10000000000000 10000000000000 10000000000000 10000000000000 10000000000000 10000000000000 10000000000000 10000000000000 10000000000000 10000000000000 10000000000000 
10000000000000 10000000000000 10000000000000 10000000000000 10000000000000 10000000000000 10000000000000 10000000000000 10000000000000 10000000000000 10000000000000 10000000000000 10000000000000 10000000000000 10000000000000 10000000000000 10000000000000 10000000000000 10000000000000 10000000000000 10000000000000 10000000000000 10000000000000 10000000000000 10000000000000 10000000000000 10000000000000 10000000000000 10000000000000 10000000000000 10000000000000 10000000000000 10000000000000 10000000000000 10000000000000 10000000000000 10000000000000 10000000000000 10000000000000 10000000000000 10000000000000 10000000000000 10000000000000 10000000000000 10000000000000 10000000000000 10000000000000 10000000000000 10000000000000 10000000000000 
10000000000000 10000000000000 10000000000000 10000000000000 10000000000000 10000000000000 10000000000000 10000000000000 10000000000000 10000000000000 10000000000000 10000000000000 10000000000000 10000000000000 10000000000000 10000000000000 10000000000000 25 10000000000000 10000000000000 10000000000000 10000000000000 10000000000000 10000000000000 10000000000000 10000000000000 20 10000000000000 10000000000000 10000000000000 10000000000000 10000000000000 10000000000000 10000000000000 10000000000000 10000000000000 10000000000000 10000000000000 10000000000000 10000000000000 23 10000000000000 10000000000000 10000000000000 10000000000000 10000000000000 10000000000000 10000000000000 10000000000000 10000000000000 
10000000000000 10000000000000 10000000000000 10000000000000 10000000000000 10000000000000 10000000000000 10000000000000 10000000000000 10000000000000 10000000000000 10000000000000 10000000000000 10000000000000 10000000000000 10000000000000 10000000000000 10000000000000 10000000000000 10000000000000 10000000000000 10000000000000 10000000000000 10000000000000 10000000000000 10000000000000 10000000000000 7 10000000000000 10000000000000 10000000000000 10000000000000 10000000000000 10000000000000 10000000000000 10000000000000 10000000000000 10000000000000 10000000000000 10000000000000 10000000000000 10000000000000 10000000000000 10000000000000 10000000000000 10000000000000 10000000000000 10000000000000 10000000000000 10000000000000 
10000000000000 10000000000000 10000000000000 10000000000000 10000000000000 10000000000000 10000000000000 10000000000000 10000000000000 10000000000000 10000000000000 10000000000000 10000000000000 10000000000000 10000000000000 10000000000000 10000000000000 10000000000000 10000000000000 10000000000000 10000000000000 10000000000000 10000000000000 10000000000000 10000000000000 10000000000000 10000000000000 10000000000000 10000000000000 10000000000000 10000000000000 10000000000000 10000000000000 10000000000000 10000000000000 10000000000000 10000000000000 10000000000000 10000000000000 10000000000000 10000000000000 10000000000000 10000000000000 10000000000000 10000000000000 10000000000000 10000000000000 10000000000000 10000000000000 10000000000000 
10000000000000 10000000000000 10000000000000 10000000000000 10000000000000 23 10000000000000 10000000000000 10000000000000 10000000000000 10000000000000 10000000000000 10000000000000 10000000000000 10000000000000 10000000000000 10000000000000 10000000000000 10000000000000 10000000000000 10000000000000 10000000000000 10000000000000 10000000000000 10000000000000 10000000000000 10000000000000 10000000000000 10000000000000 21 10000000000000 10000000000000 10000000000000 10000000000000 10000000000000 10000000000000 10000000000000 10000000000000 10000000000000 10000000000000 10000000000000 10000000000000 10000000000000 10000000000000 10000000000000 10000000000000 10000000000000 10000000000000 21 10000000000000 
10000000000000 10000000000000 10000000000000 10000000000000 10000000000000 10000000000000 10000000000000 10000000000000 10000000000000 10000000000000 10000000000000 10000000000000 10000000000000 10000000000000 10000000000000 10000000000000 10000000000000 10000000000000 10000000000000 10000000000000 10000000000000 10000000000000 10000000000000 10000000000000 10000000000000 10000000000000 10000000000000 10000000000000 10000000000000 10000000000000 10000000000000 10000000000000 10000000000000 10000000000000 10000000000000 10000000000000 10000000000000 10000000000000 10000000000000 10000000000000 10000000000000 10000000000000 10000000000000 10000000000000 10000000000000 10000000000000 10000000000000 10000000000000 10000000000000 10000000000000 
10000000000000 10000000000000 10000000000000 10000000000000 10000000000000 10000000000000 10000000000000 10000000000000 10000000000000 10000000000000 10000000000000 10000000000000 25 10000000000000 10000000000000 10000000000000 10000000000000 10000000000000 10000000000000 10000000000000 10000000000000 10000000000000 10000000000000 10000000000000 10000000000000 10000000000000 20 10000000000000 10000000000000 10000000000000 10000000000000 10000000000000 10000000000000 10000000000000 10000000000000 10000000000000 10000000000000 10000000000000 10000000000000 10000000000000 21 10000000000000 10000000000000 10000000000000 10000000000000 10000000000000 10000000000000 10000000000000 10000000000000 10000000000000 
10000000000000 10000000000000 10000000000000 10000000000000 10000000000000 10000000000000 10000000000000 10000000000000 10000000000000 10000000000000 10000000000000 10000000000000 10000000000000 10000000000000 10000000000000 10000000000000 10000000000000 10000000000000 10000000000000 10000000000000 10000000000000 10000000000000 10000000000000 10000000000000 10000000000000 10000000000000 10000000000000 10000000000000 10000000000000 10000000000000 10000000000000 10000000000000 10000000000000 10000000000000 10000000000000 10000000000000 10000000000000 10000000000000 10000000000000 10000000000000 10000000000000 10000000000000 10000000000000 10000000000000 10000000000000 10000000000000 10000000000000 10000000000000 10000000000000 10000000000000 
10000000000000 10000000000000 10000000000000 10000000000000 10000000000000 10000000000000 10000000000000 10000000000000 10000000000000 10000000000000 10000000000000 10000000000000 10000000000000 10000000000000 10000000000000 10000000000000 10000000000000 10000000000000 10000000000000 10000000000000 10000000000000 10000000000000 10000000000000 10000000000000 10000000000000 10000000000000 10000000000000 10000000000000 10000000000000 10000000000000 10000000000000 10000000000000 10000000000000 10000000000000 10000000000000 10000000000000 10000000000000 10000000000000 10000000000000 10000000000000 10000000000000 10000000000000 10000000000000 10000000000000 10000000000000 10000000000000 10000000000000 10000000000000 10000000000000 10000000000000 
10000000000000 10000000000000 10000000000000 10000000000000 10000000000000 10000000000000 10000000000000 10000000000000 10000000000000 10000000000000 10000000000000 10000000000000 10000000000000 10000000000000 10000000000000 10000000000000 10000000000000 10000000000000 10000000000000 10000000000000 10000000000000 10000000000000 10000000000000 10000000000000 10000000000000 10000000000000 10000000000000 10000000000000 10000000000000 10000000000000 10000000000000 10000000000000 10000000000000 10000000000000 10000000000000 10000000000000 10000000000000 6 10000000000000 10000000000000 10000000000000 10000000000000 10000000000000 10000000000000 10000000000000 10000000000000 10000000000000 10000000000000 10000000000000 10000000000000 
10000000000000 10000000000000 10000000000000 10000000000000 10000000000000 10000000000000 10000000000000 10000000000000 10000000000000 10000000000000 10000000000000 10000000000000 10000000000000 10000000000000 10000000000000 10000000000000 10000000000000 10000000000000 10000000000000 10000000000000 10000000000000 10000000000000 10000000000000 10000000000000 10000000000000 10000000000000 10000000000000 10000000000000 21 10000000000000 10000000000000 10000000000000 10000000000000 10000000000000 10000000000000 10000000000000 10000000000000 10000000000000 10000000000000 10000000000000 10000000000000 10000000000000 10000000000000 10000000000000 10000000000000 10000000000000 10000000000000 24 10000000000000 10000000000000 
10000000000000 10000000000000 10000000000000 10000000000000 10000000000000 10000000000000 10000000000000 10000000000000 10000000000000 10000000000000 10000000000000 10000000000000 10000000000000 10000000000000 10000000000000 10000000000000 10000000000000 10000000000000 10000000000000 10000000000000 10000000000000 10000000000000 10000000000000 10000000000000 10000000000000 10000000000000 10000000000000 10000000000000 10000000000000 10000000000000 10000000000000 10000000000000 10000000000000 10000000000000 10000000000000 10000000000000 10000000000000 10000000000000 10000000000000 10000000000000 10000000000000 10000000000000 10000000000000 10000000000000 10000000000000 10000000000000 10000000000000 10000000000000 10000000000000 10000000000000 
10000000000000 10000000000000 10000000000000 10000000000000 10000000000000 10000000000000 10000000000000 10000000000000 10000000000000 10000000000000 10000000000000 10000000000000 10000000000000 10000000000000 10000000000000 10000000000000 10000000000000 10000000000000 10000000000000 10000000000000 10000000000000 10000000000000 10000000000000 10000000000000 10000000000000 10000000000000 10000000000000 10000000000000 10000000000000 10000000000000 10000000000000 10000000000000 10000000000000 10000000000000 10000000000000 10000000000000 10000000000000 10000000000000 10000000000000 10000000000000 10000000000000 10000000000000 10000000000000 10000000000000 10000000000000 10000000000000 10000000000000 10000000000000 10000000000000 10000000000000 
10000000000000 10000000000000 10000000000000 10000000000000 10000000000000 10000000000000 10000000000000 10000000000000 10000000000000 10000000000000 10000000000000 10000000000000 10000000000000 10000000000000 10000000000000 10000000000000 10000000000000 10000000000000 10000000000000 10000000000000 10000000000000 10000000000000 10000000000000 10000000000000 10000000000000 10000000000000 10000000000000 10000000000000 10000000000000 10000000000000 10000000000000 10000000000000 10000000000000 10000000000000 10000000000000 10000000000000 10000000000000 10000000000000 10000000000000 10000000000000 10000000000000 10000000000000 10000000000000 10000000000000 10000000000000 10000000000000 10000000000000 10000000000000 10000000000000 7 
10000000000000 10000000000000 10000000000000 10000000000000 10000000000000 10000000000000 10000000000000 10000000000000 10000000000000 10000000000000 10000000000000 10000000000000 10000000000000 10000000000000 10000000000000 10000000000000 10000000000000 10000000000000 10000000000000 10000000000000 10000000000000 10000000000000 10000000000000 10000000000000 10000000000000 10000000000000 10000000000000 10000000000000 10000000000000 10000000000000 10000000000000 10000000000000 10000000000000 10000000000000 10000000000000 10000000000000 10000000000000 10000000000000 10000000000000 10000000000000 10000000000000 10000000000000 10000000000000 10000000000000 10000000000000 10000000000000 10000000000000 10000000000000 10000000000000 10000000000000 
10000000000000 10000000000000 10000000000000 10000000000000 10000000000000 10000000000000 10000000000000 10000000000000 10000000000000 10000000000000 10000000000000 10000000000000 20 10000000000000 10000000000000 10000000000000 10000000000000 20 10000000000000 10000000000000 10000000000000 10000000000000 10000000000000 10000000000000 10000000000000 10000000000000 10000000000000 10000000000000 10000000000000 10000000000000 10000000000000 10000000000000 10000000000000 10000000000000 10000000000000 10000000000000 10000000000000 10000000000000 10000000000000 10000000000000 20 10000000000000 10000000000000 10000000000000 10000000000000 10000000000000 10000000000000 10000000000000 10000000000000 10000000000000 
10000000000000 10000000000000 10000000000000 10000000000000 10000000000000 10000000000000 10000000000000 10000000000000 10000000000000 10000000000000 10000000000000 10000000000000 10000000000000 7 10000000000000 10000000000000 10000000000000 10000000000000 10000000000000 10000000000000 10000000000000 10000000000000 10000000000000 10000000000000 10000000000000 10000000000000 10000000000000 10000000000000 10000000000000 10000000000000 10000000000000 10000000000000 10000000000000 10000000000000 10000000000000 10000000000000 10000000000000 10000000000000 10000000000000 10000000000000 10000000000000 10000000000000 10000000000000 10000000000000 10000000000000 10000000000000 10000000000000 10000000000000 10000000000000 10000000000000 
10000000000000 10000000000000 10000000000000 10000000000000 10000000000000 10000000000000 10000000000000 10000000000000 10000000000000 10000000000000 10000000000000 10000000000000 10000000000000 10000000000000 10000000000000 10000000000000 10000000000000 10000000000000 10000000000000 10000000000000 10000000000000 21 10000000000000 10000000000000 10000000000000 10000000000000 10000000000000 10000000000000 10000000000000 10000000000000 10000000000000 10000000000000 10000000000000 10000000000000 10000000000000 10000000000000 10000000000000 10000000000000 10000000000000 10000000000000 10000000000000 10000000000000 10000000000000 10000000000000 10000000000000 10000000000000 10000000000000 15 10000000000000 10000000000000 
10000000000000 10000000000000 10000000000000 10000000000000 10000000000000 28 10000000000000 10000000000000 10000000000000 10000000000000 10000000000000 10000000000000 10000000000000 10000000000000 10000000000000 21 10000000000000 10000000000000 10000000000000 10000000000000 10000000000000 10000000000000 10000000000000 10000000000000 10000000000000 10000000000000 10000000000000 10000000000000 10000000000000 10000000000000 10000000000000 10000000000000 10000000000000 10000000000000 10000000000000 10000000000000 10000000000000 10000000000000 10000000000000 10000000000000 10000000000000 10000000000000 10000000000000 10000000000000 10000000000000 10000000000000 10000000000000 10000000000000 25 10000000000000 
10000000000000 10000000000000 7 10000000000000 10000000000000 10000000000000 10000000000000 10000000000000 10000000000000 10000000000000 10000000000000 10000000000000 10000000000000 10000000000000 10000000000000 10000000000000 10000000000000 10000000000000 10000000000000 10000000000000 10000000000000 10000000000000 10000000000000 10000000000000 10000000000000 10000000000000 10000000000000 10000000000000 10000000000000 10000000000000 10000000000000 10000000000000 10000000000000 10000000000000 10000000000000 10000000000000 10000000000000 10000000000000 10000000000000 10000000000000 10000000000000 10000000000000 10000000000000 10000000000000 10000000000000 10000000000000 10000000000000 10000000000000 10000000000000 10000000000000 
10000000000000 10000000000000 10000000000000 10000000000000 10000000000000 10000000000000 10000000000000 10000000000000 10000000000000 10000000000000 10000000000000 10000000000000 10000000000000 10000000000000 10000000000000 10000000000000 10000000000000 10000000000000 10000000000000 10000000000000 10000000000000 10000000000000 10000000000000 10000000000000 10000000000000 10000000000000 10000000000000 10000000000000 10000000000000 10000000000000 10000000000000 10000000000000 10000000000000 10000000000000 10000000000000 10000000000000 10000000000000 10000000000000 10000000000000 10000000000000 10000000000000 10000000000000 10000000000000 10000000000000 10000000000000 10000000000000 10000000000000 10000000000000 10000000000000 10000000000000 
10000000000000 10000000000000 10000000000000 8 10000000000000 10000000000000 10000000000000 10000000000000 10000000000000 10000000000000 10000000000000 10000000000000 10000000000000 10000000000000 10000000000000 10000000000000 10000000000000 10000000000000 10000000000000 10000000000000 10000000000000 10000000000000 10000000000000 10000000000000 10000000000000 10000000000000 10000000000000 10000000000000 10000000000000 10000000000000 10000000000000 10000000000000 10000000000000 10000000000000 10000000000000 10000000000000 10000000000000 10000000000000 10000000000000 10000000000000 10000000000000 10000000000000 10000000000000 10000000000000 11 10000000000000 10000000000000 10000000000000 10000000000000 10000000000000 
10000000000000 8 10000000000000 10000000000000 10000000000000 10000000000000 10000000000000 10000000000000 10000000000000 10000000000000 10000000000000 10000000000000 10000000000000 10000000000000 10000000000000 10000000000000 10000000000000 10000000000000 10000000000000 10000000000000 10000000000000 10000000000000 10000000000000 10000000000000 10000000000000 10000000000000 10000000000000 10000000000000 10000000000000 10000000000000 10000000000000 10000000000000 10000000000000 10000000000000 10000000000000 10000000000000 10000000000000 10000000000000 10000000000000 10000000000000 10000000000000 10000000000000 10000000000000 10000000000000 10000000000000 10000000000000 10000000000000 10000000000000 10000000000000 10000000000000 
10000000000000 10000000000000 10000000000000 10000000000000 17 10000000000000 10000000000000 10000000000000 10000000000000 10000000000000 10000000000000 10000000000000 10000000000000 10000000000000 10000000000000 10000000000000 10000000000000 10000000000000 10000000000000 10000000000000 10000000000000 10000000000000 10000000000000 10000000000000 10000000000000 10000000000000 10000000000000 10000000000000 10000000000000 10000000000000 10000000000000 10000000000000 10000000000000 10000000000000 10000000000000 10000000000000 10000000000000 10000000000000 10000000000000 10000000000000 10000000000000 10000000000000 10000000000000 10000000000000 10000000000000 14 10000000000000 10000000000000 10000000000000 10000000000000 
10000000000000 10000000000000 10000000000000 10000000000000 10000000000000 10000000000000 10000000000000 18 18 10000000000000 10000000000000 10000000000000 10000000000000 10000000000000 10000000000000 10000000000000 10000000000000 10000000000000 10000000000000 10000000000000 10000000000000 10000000000000 10000000000000 10000000000000 10000000000000 10000000000000 10000000000000 10000000000000 10000000000000 10000000000000 10000000000000 10000000000000 10000000000000 10000000000000 10000000000000 10000000000000 10000000000000 10000000000000 10000000000000 10000000000000 10000000000000 10000000000000 10000000000000 10000000000000 10000000000000 10000000000000 17 10000000000000 10000000000000 10000000000000 
10000000000000 10000000000000 10000000000000 10000000000000 10000000000000 10000000000000 10000000000000 10000000000000 10000000000000 10000000000000 10000000000000 10000000000000 10000000000000 10000000000000 10000000000000 10000000000000 10000000000000 10000000000000 10000000000000 10000000000000 10000000000000 10000000000000 10000000000000 10000000000000 10000000000000 10000000000000 10000000000000 10000000000000 10000000000000 10000000000000 10000000000000 10000000000000 10000000000000 10000000000000 10000000000000 10000000000000 10000000000000 10000000000000 10000000000000 10000000000000 10000000000000 10000000000000 10000000000000 10000000000000 10000000000000 10000000000000 10000000000000 10000000000000 10000000000000 10000000000000 
10000000000000 10000000000000 10000000000000 10000000000000 10000000000000 10000000000000 10000000000000 10000000000000 10000000000000 10000000000000 10000000000000 10000000000000 10000000000000 10000000000000 10000000000000 10000000000000 10000000000000 10000000000000 10000000000000 10000000000000 6 10000000000000 10000000000000 10000000000000 10000000000000 10000000000000 10000000000000 10000000000000 10000000000000 10000000000000 10000000000000 10000000000000 10000000000000 10000000000000 10000000000000 10000000000000 10000000000000 10000000000000 10000000000000 10000000000000 10000000000000 10000000000000 10000000000000 10000000000000 10000000000000 10000000000000 10000000000000 10000000000000 10000000000000 10000000000000 
10000000000000 10000000000000 10000000000000 10000000000000 10000000000000 10000000000000 10000000000000 10000000000000 10000000000000 10000000000000 7 10000000000000 10000000000000 10000000000000 10000000000000 10000000000000 10000000000000 10000000000000 10000000000000 10000000000000 10000000000000 10000000000000 10000000000000 10000000000000 10000000000000 10000000000000 10000000000000 10000000000000 10000000000000 10000000000000 10000000000000 10000000000000 10000000000000 10000000000000 10000000000000 10000000000000 10000000000000 10000000000000 10000000000000 10000000000000 10000000000000 10000000000000 10000000000000 10000000000000 10000000000000 10000000000000 10000000000000 10000000000000 10000000000000 10000000000000 
10000000000000 10000000000000 10000000000000 10000000000000 10000000000000 10000000000000 10000000000000 10000000000000 10000000000000 4 10000000000000 10000000000000 10000000000000 10000000000000 10000000000000 10000000000000 10000000000000 10000000000000 10000000000000 10000000000000 10000000000000 10000000000000 10000000000000 10000000000000 10000000000000 10000000000000 10000000000000 10000000000000 10000000000000 10000000000000 10000000000000 10000000000000 10000000000000 10000000000000 10000000000000 10000000000000 10000000000000 10000000000000 10000000000000 10000000000000 10000000000000 10000000000000 10000000000000 10000000000000 10000000000000 10000000000000 10000000000000 10000000000000 10000000000000 10000000000000 
10000000000000 10000000000000 10000000000000 10000000000000 10000000000000 10000000000000 10000000000000 10000000000000 10000000000000 10000000000000 10000000000000 10000000000000 23 10000000000000 10000000000000 10000000000000 10000000000000 21 10000000000000 10000000000000 10000000000000 10000000000000 10000000000000 10000000000000 10000000000000 10000000000000 20 10000000000000 10000000000000 10000000000000 10000000000000 10000000000000 10000000000000 10000000000000 10000000000000 10000000000000 10000000000000 10000000000000 10000000000000 10000000000000 10000000000000 10000000000000 10000000000000 10000000000000 10000000000000 10000000000000 10000000000000 10000000000000 10000000000000 10000000000000 
10000000000000 10000000000000 10000000000000 10000000000000 10000000000000 10000000000000 10000000000000 10000000000000 10000000000000 10000000000000 10000000000000 10000000000000 10000000000000 10000000000000 10000000000000 10000000000000 10000000000000 10000000000000 10000000000000 10000000000000 10000000000000 10000000000000 10000000000000 10000000000000 10000000000000 10000000000000 10000000000000 10000000000000 10000000000000 10000000000000 10000000000000 10000000000000 10000000000000 10000000000000 10000000000000 10000000000000 10000000000000 10000000000000 10000000000000 10000000000000 10000000000000 10000000000000 9 9 10000000000000 10000000000000 10000000000000 10000000000000 10000000000000 10000000000000 
10000000000000 10000000000000 10000000000000 10000000000000 10000000000000 10000000000000 10000000000000 10000000000000 10000000000000 10000000000000 10000000000000 10000000000000 10000000000000 10000000000000 10000000000000 10000000000000 10000000000000 10000000000000 10000000000000 10000000000000 10000000000000 10000000000000 10000000000000 10000000000000 10000000000000 10000000000000 10000000000000 10000000000000 10000000000000 10000000000000 10000000000000 10000000000000 10000000000000 10000000000000 10000000000000 10000000000000 10000000000000 10000000000000 10000000000000 10000000000000 10000000000000 9 10000000000000 8 10000000000000 10000000000000 10000000000000 10000000000000 10000000000000 10000000000000 
10000000000000 10000000000000 10000000000000 10000000000000 10000000000000 10000000000000 10000000000000 10000000000000 10000000000000 10000000000000 10000000000000 10000000000000 10000000000000 10000000000000 10000000000000 10000000000000 10000000000000 10000000000000 10000000000000 10000000000000 10000000000000 10000000000000 10000000000000 10000000000000 10000000000000 10000000000000 10000000000000 10000000000000 10000000000000 10000000000000 10000000000000 10000000000000 10000000000000 10000000000000 10000000000000 10000000000000 10000000000000 10000000000000 10000000000000 10000000000000 10000000000000 9 8 10000000000000 10000000000000 10000000000000 10000000000000 10000000000000 10000000000000 10000000000000 
10000000000000 10000000000000 10000000000000 13 10000000000000 10000000000000 10000000000000 10000000000000 10000000000000 10000000000000 10000000000000 10000000000000 10000000000000 10000000000000 10000000000000 10000000000000 10000000000000 10000000000000 10000000000000 10000000000000 10000000000000 10000000000000 10000000000000 10000000000000 10000000000000 10000000000000 10000000000000 10000000000000 10000000000000 10000000000000 10000000000000 10000000000000 11 10000000000000 10000000000000 10000000000000 10000000000000 10000000000000 10000000000000 10000000000000 10000000000000 10000000000000 10000000000000 10000000000000 10000000000000 10000000000000 10000000000000 10000000000000 10000000000000 10000000000000 
10000000000000 10000000000000 10000000000000 10000000000000 17 10000000000000 10000000000000 10000000000000 10000000000000 10000000000000 10000000000000 10000000000000 10000000000000 10000000000000 10000000000000 10000000000000 10000000000000 10000000000000 10000000000000 10000000000000 10000000000000 10000000000000 10000000000000 10000000000000 10000000000000 10000000000000 10000000000000 10000000000000 10000000000000 10000000000000 10000000000000 10000000000000 10000000000000 10000000000000 14 10000000000000 10000000000000 10000000000000 10000000000000 10000000000000 10000000000000 10000000000000 10000000000000 10000000000000 10000000000000 10000000000000 10000000000000 10000000000000 10000000000000 10000000000000 
10000000000000 10000000000000 10000000000000 10000000000000 10000000000000 10000000000000 10000000000000 15 18 10000000000000 10000000000000 10000000000000 10000000000000 10000000000000 10000000000000 10000000000000 10000000000000 10000000000000 10000000000000 10000000000000 10000000000000 10000000000000 10000000000000 10000000000000 10000000000000 10000000000000 10000000000000 10000000000000 10000000000000 10000000000000 10000000000000 10000000000000 10000000000000 10000000000000 10000000000000 17 10000000000000 10000000000000 10000000000000 10000000000000 10000000000000 10000000000000 10000000000000 10000000000000 10000000000000 10000000000000 10000000000000 10000000000000 10000000000000 10000000000000 
10000000000000 10000000000000 10000000000000 10000000000000 10000000000000 10000000000000 10000000000000 10000000000000 10000000000000 10000000000000 10000000000000 10000000000000 10000000000000 10000000000000 10000000000000 10000000000000 10000000000000 10000000000000 10000000000000 10000000000000 10000000000000 24 10000000000000 10000000000000 10000000000000 10000000000000 10000000000000 10000000000000 15 10000000000000 10000000000000 10000000000000 10000000000000 10000000000000 10000000000000 10000000000000 10000000000000 10000000000000 10000000000000 10000000000000 10000000000000 10000000000000 10000000000000 10000000000000 10000000000000 10000000000000 10000000000000 10000000000000 10000000000000 10000000000000 
10000000000000 10000000000000 10000000000000 10000000000000 10000000000000 24 10000000000000 10000000000000 10000000000000 10000000000000 10000000000000 10000000000000 10000000000000 10000000000000 10000000000000 21 10000000000000 10000000000000 10000000000000 10000000000000 10000000000000 10000000000000 10000000000000 10000000000000 10000000000000 10000000000000 10000000000000 10000000000000 10000000000000 25 10000000000000 10000000000000 10000000000000 10000000000000 10000000000000 10000000000000 10000000000000 10000000000000 10000000000000 10000000000000 10000000000000 10000000000000 10000000000000 10000000000000 10000000000000 10000000000000 10000000000000 10000000000000 10000000000000 10000000000000 
10000000000000 10000000000000 10000000000000 10000000000000 10000000000000 10000000000000 10000000000000 10000000000000 10000000000000 10000000000000 10000000000000 10000000000000 10000000000000 10000000000000 10000000000000 10000000000000 10000000000000 10000000000000 10000000000000 10000000000000 10000000000000 10000000000000 10000000000000 10000000000000 7 10000000000000 10000000000000 10000000000000 10000000000000 10000000000000 10000000000000 10000000000000 10000000000000 10000000000000 10000000000000 10000000000000 10000000000000 10000000000000 10000000000000 10000000000000 10000000000000 10000000000000 10000000000000 10000000000000 10000000000000 10000000000000 10000000000000 10000000000000 10000000000000 10000000000000 
EOF
